3	28	1	8	29	100	0	0	0	0	0	0
800	1	0	0	0	0	0	0	0	0	0	0
800	1	0	0	0	0	0	0	0	0	0	0
800	1	0	0	0	0	0	0	0	0	0	0
100	1	0	79.69	0.38	1	0	0	0	0	0	0
100	1	0	79.69	0.38	1	0	0	0	0	0	0
100	1	0	79.69	0.38	1	0	0	0	0	0	0
100	1	0	79.69	0.38	1	0	0	0	0	0	0
100	1	0	79.69	0.38	1	0	0	0	0	0	0
100	1	0	79.69	0.38	1	0	0	0	0	0	0
100	1	0	79.69	0.38	1	0	0	0	0	0	0
100	1	0	79.69	0.38	1	0	0	0	0	0	0
100	1	0	79.69	0.38	1	0	0	0	0	0	0
100	1	0	79.69	0.38	1	0	0	0	0	0	0
100	1	0	79.69	0.38	1	0	0	0	0	0	0
100	1	0	79.69	0.38	1	0	0	0	0	0	0
100	1	0	79.69	0.38	1	0	0	0	0	0	0
100	1	0	79.69	0.38	1	0	0	0	0	0	0
100	1	0	79.69	0.38	1	0	0	0	0	0	0
100	1	0	79.69	0.38	1	0	0	0	0	0	0
100	1	0	79.69	0.38	1	0	0	0	0	0	0
100	1	0	79.69	0.38	1	0	0	0	0	0	0
100	1	0	79.69	0.38	1	0	0	0	0	0	0
100	1	0	79.69	0.38	1	0	0	0	0	0	0
100	1	0	79.69	0.38	1	0	0	0	0	0	0
100	1	0	79.69	0.38	1	0	0	0	0	0	0
100	1	0	79.69	0.38	1	0	0	0	0	0	0
100	1	0	79.69	0.38	1	0	0	0	0	0	0
100	1	0	79.69	0.38	1	0	0	0	0	0	0
100	1	0	79.69	0.38	1	0	0	0	0	0	0
100	1	0	79.69	0.38	1	0	0	0	0	0	0
100	1	0	79.69	0.38	1	0	0	0	0	0	0
50	150	0	0	0	0	240	0	0	99999	0	0
25	25	0	0	0	0	240	0	0	99999	0	0
50	25	0	0	0	0	240	0	0	99999	0	0
75	25	0	0	0	0	240	0	0	99999	0	0
25	50	0	0	0	0	240	0	0	99999	0	0
75	50	0	0	0	0	240	0	0	99999	0	0
25	75	0	0	0	0	240	0	0	99999	0	0
50	75	0	0	0	0	240	0	0	99999	0	0
75	75	0	0	0	0	240	0	0	99999	0	0
25	25	0	0	0	0	240	0	0	0	0	0
50	25	0	0	0	0	240	0	0	0	0	0
75	25	0	0	0	0	240	0	0	0	0	0
25	50	0	0	0	0	240	0	0	0	0	0
75	50	0	0	0	0	240	0	0	0	0	0
25	75	0	0	0	0	240	0	0	0	0	0
50	75	0	0	0	0	240	0	0	0	0	0
75	75	0	0	0	0	240	0	0	0	0	0
40      50      0       0       0       0       240     0       0       0       0       0
73      52      0       0       0       0       240     0       0       0       0       0
90      55      0       0       0       0       240     0       0       0       0       0
55      79      0       0       0       0       240     0       0       0       0       0
69      89      0       0       0       0       240     0       0       0       0       0
32      80      0       0       0       0       240     0       0       0       0       0
39      96      0       0       0       0       240     0       0       0       0       0
23      80      0       0       0       0       240     0       0       0       0       0
4	83	0	0	0	0	240	0	0	0	0	0
18	58	0	0	0	0	240	0	0	0	0	0
1	56	0	0	0	0	240	0	0	0	0	0
13	31	0	0	0	0	240	0	0	0	0	0
-5	38	0	0	0	0	240	0	0	0	0	0
26	37	0	0	0	0	240	0	0	0	0	0
28	13	0	0	0	0	240	0	0	0	0	0
39	31	0	0	0	0	240	0	0	0	0	0
48	11	0	0	0	0	240	0	0	0	0	0
59	17	0	0	0	0	240	0	0	0	0	0
73	23	0	0	0	0	240	0	0	0	0	0
74	32	0	0	0	0	240	0	0	0	0	0
90	44	0	0	0	0	240	0	0	0	0	0
25	85	20	6	14	262	292	10	0	0	0	0
22	75	30	9	21	185	215	10	0	0	0	0
22	85	10	3	7	214	244	10	0	0	0	0
20	80	40	10	30	162	192	10	0	0	0	0
20	85	20	5	15	240	270	10	0	0	0	0
18	75	20	5	15	206	236	10	0	0	0	0
15	75	20	4	16	203	233	10	0	0	0	0
15	80	10	2	8	196	226	10	0	0	0	0
10	35	20	6	14	224	254	10	0	0	0	0
10	40	30	8	22	190	220	10	0	0	0	0
8	40	40	8	32	187	217	10	0	0	0	0
8	45	20	4	16	212	242	10	0	0	0	0
5	35	10	1	9	150	180	10	0	0	0	0
5	45	10	1	9	137	167	10	0	0	0	0
2	40	20	1	19	204	234	10	0	0	0	0
0	40	20	0	20	255	285	10	0	0	0	0
0	45	20	0	20	260	290	10	0	0	0	0
44	5	20	2	18	180	210	10	0	0	0	0
42	10	40	10	30	149	179	10	0	0	0	0
42	15	10	4	6	220	250	10	0	0	0	0
40	5	10	1	9	256	286	10	0	0	0	0
40	15	40	15	25	207	237	10	0	0	0	0
38	5	30	4	26	190	220	10	0	0	0	0
38	15	10	4	6	209	239	10	0	0	0	0
35	5	20	3	17	212	242	10	0	0	0	0
95	30	30	9	21	204	234	10	0	0	0	0
95	35	20	7	13	243	273	10	0	0	0	0
92	30	10	3	7	245	275	10	0	0	0	0
90	35	10	4	6	229	259	10	0	0	0	0
88	30	10	3	7	230	260	10	0	0	0	0
88	35	20	8	12	203	233	10	0	0	0	0
87	30	10	3	7	168	198	10	0	0	0	0
85	25	10	3	7	200	230	10	0	0	0	0
85	35	30	12	18	253	283	10	0	0	0	0
67	85	20	16	4	256	286	10	0	0	0	0
65	85	40	31	9	158	188	10	0	0	0	0
65	82	10	8	2	157	187	10	0	0	0	0
62	80	30	23	7	191	221	10	0	0	0	0
60	80	10	8	2	201	231	10	0	0	0	0
60	85	30	21	9	258	288	10	0	0	0	0
58	75	20	15	5	211	241	10	0	0	0	0
55	80	10	7	3	135	165	10	0	0	0	0
55	85	20	13	7	208	238	10	0	0	0	0
55	82	10	7	3	137	167	10	0	0	0	0
20	82	10	2	8	154	184	10	0	0	0	0
18	80	10	2	8	230	260	10	0	0	0	0
2	45	10	0	10	165	195	10	0	0	0	0
42	5	10	1	9	255	285	10	0	0	0	0
42	12	10	3	7	186	216	10	0	0	0	0
72	35	30	15	15	260	290	10	0	0	0	0
55	20	19	7	12	250	280	10	0	0	0	0
25	30	3	3	0	159	189	10	0	0	0	0
20	50	5	2	3	123	153	10	0	0	0	0
55	60	16	15	1	271	301	10	0	0	0	0
30	60	16	8	8	127	157	10	0	0	0	0
50	35	19	13	6	234	264	10	0	0	0	0
30	25	23	19	4	128	158	10	0	0	0	0
15	10	20	13	7	163	193	10	0	0	0	0
10	20	19	10	9	151	181	10	0	0	0	0
15	60	17	4	13	274	304	10	0	0	0	0
45	65	9	6	3	285	315	10	0	0	0	0
65	35	3	2	1	144	174	10	0	0	0	0
65	20	6	2	4	162	192	10	0	0	0	0
45	30	17	11	6	166	196	10	0	0	0	0
35	40	16	14	2	132	162	10	0	0	0	0
41	37	16	14	2	115	145	10	0	0	0	0
64	42	9	6	3	275	305	10	0	0	0	0
40	60	21	14	7	200	230	10	0	0	0	0
31	52	27	16	11	111	141	10	0	0	0	0
35	69	23	12	11	184	214	10	0	0	0	0
65	55	14	12	2	151	181	10	0	0	0	0
63	65	8	8	0	207	237	10	0	0	0	0
2	60	5	0	5	196	226	10	0	0	0	0
20	20	8	8	0	220	250	10	0	0	0	0
5	5	16	16	0	166	196	10	0	0	0	0
60	12	31	6	25	156	186	10	0	0	0	0
23	3	7	1	6	191	221	10	0	0	0	0
8	56	27	4	23	178	208	10	0	0	0	0
6	68	30	3	27	154	184	10	0	0	0	0
47	47	13	13	0	145	175	10	0	0	0	0
49	58	10	8	2	258	288	10	0	0	0	0
27	43	9	6	3	215	245	10	0	0	0	0
37	31	14	12	2	219	249	10	0	0	0	0
57	29	18	9	9	174	204	10	0	0	0	0
63	23	2	1	1	166	196	10	0	0	0	0
21	24	28	25	3	251	281	10	0	0	0	0
12	24	13	7	6	159	189	10	0	0	0	0
24	58	19	8	11	195	225	10	0	0	0	0
67	5	25	2	23	230	260	10	0	0	0	0
37	47	6	5	1	246	276	10	0	0	0	0
49	42	13	11	2	177	207	10	0	0	0	0
53	43	14	11	3	241	271	10	0	0	0	0
61	52	3	3	0	145	175	10	0	0	0	0
57	48	23	19	4	271	301	10	0	0	0	0
56	37	6	4	2	167	197	10	0	0	0	0
55	54	26	26	0	279	309	10	0	0	0	0
4	18	35	8	27	235	265	10	0	0	0	0
26	52	9	5	4	244	274	10	0	0	0	0
26	35	15	11	4	152	182	10	0	0	0	0
31	67	3	1	2	121	151	10	0	0	0	0
